&GLOBAL
   PROJECT  DPGEN
&END
&FORCE_EVAL
   &DFT
      BASIS_SET_FILE_NAME  /data/home/whxu/data/cp2k/BASIS/BASIS_MOLOPT
      POTENTIAL_FILE_NAME  /data/home/whxu/data/cp2k/POTENTIAL/GTH_POTENTIALS
      CHARGE  0
      UKS  F
      &MGRID
         CUTOFF  600
         REL_CUTOFF  60
         NGRIDS  4
      &END
      &QS
         EPS_DEFAULT  1.0E-12
      &END
      &SCF
         SCF_GUESS  RESTART
         EPS_SCF  3.0E-7
         MAX_SCF  50
         &OUTER_SCF
            EPS_SCF  3.0E-7
            MAX_SCF  10
         &END
         &OT
            MINIMIZER  DIIS
            PRECONDITIONER  FULL_SINGLE_INVERSE
            ENERGY_GAP  0.1
         &END
      &END
      &LOCALIZE
         METHOD  CRAZY
         MAX_ITER  2000
         &PRINT
            &WANNIER_CENTERS
               IONS+CENTERS
               FILENAME  =64water_wannier.xyz
            &END
         &END
      &END
      &XC
         &XC_FUNCTIONAL PBE
         &END
         &vdW_POTENTIAL
            DISPERSION_FUNCTIONAL  PAIR_POTENTIAL
            &PAIR_POTENTIAL
               TYPE  DFTD3
               PARAMETER_FILE_NAME  dftd3.dat
               REFERENCE_FUNCTIONAL  PBE
            &END
         &END
      &END
   &END
   &SUBSYS
      @include coord_n_cell.inc
      &KIND O
         BASIS_SET  DZVP-MOLOPT-SR-GTH
         POTENTIAL  GTH-PBE-q6
      &END
      &KIND H
         BASIS_SET  DZVP-MOLOPT-SR-GTH
         POTENTIAL  GTH-PBE-q1
      &END
   &END
   &PRINT
      &FORCES ON
      &END
   &END
&END